c nIsolatedPIs 0
c maxPI 32
p cnf 233 604
c gate 33 -15 -31 0
-15 -33 0
-31 -33 0
15 31 33 0
c gate 34 15 31 0
15 -34 0
31 -34 0
-15 -31 34 0
c gate 35 -33 -34 0
-33 -35 0
-34 -35 0
33 34 35 0
c gate 36 14 30 0
14 -36 0
30 -36 0
-14 -30 36 0
c gate 37 -14 -30 0
-14 -37 0
-30 -37 0
14 30 37 0
c gate 38 -36 -37 0
-36 -38 0
-37 -38 0
36 37 38 0
c gate 39 12 28 0
12 -39 0
28 -39 0
-12 -28 39 0
c gate 40 13 29 0
13 -40 0
29 -40 0
-13 -29 40 0
c gate 41 -39 -40 0
-39 -41 0
-40 -41 0
39 40 41 0
c gate 42 38 -41 0
38 -42 0
-41 -42 0
-38 41 42 0
c gate 43 -36 -42 0
-36 -43 0
-42 -43 0
36 42 43 0
c gate 44 35 43 0
35 -44 0
43 -44 0
-35 -43 44 0
c gate 45 -35 -43 0
-35 -45 0
-43 -45 0
35 43 45 0
c gate 46 -44 -45 0
-44 -46 0
-45 -46 0
44 45 46 0
c gate 47 -13 -29 0
-13 -47 0
-29 -47 0
13 29 47 0
c gate 48 11 27 0
11 -48 0
27 -48 0
-11 -27 48 0
c gate 49 10 26 0
10 -49 0
26 -49 0
-10 -26 49 0
c gate 50 -48 -49 0
-48 -50 0
-49 -50 0
48 49 50 0
c gate 51 9 25 0
9 -51 0
25 -51 0
-9 -25 51 0
c gate 52 -8 -24 0
-8 -52 0
-24 -52 0
8 24 52 0
c gate 53 -7 -23 0
-7 -53 0
-23 -53 0
7 23 53 0
c gate 54 -6 -22 0
-6 -54 0
-22 -54 0
6 22 54 0
c gate 55 -2 -18 0
-2 -55 0
-18 -55 0
2 18 55 0
c gate 56 4 20 0
4 -56 0
20 -56 0
-4 -20 56 0
c gate 57 3 19 0
3 -57 0
19 -57 0
-3 -19 57 0
c gate 58 -56 -57 0
-56 -58 0
-57 -58 0
56 57 58 0
c gate 59 55 58 0
55 -59 0
58 -59 0
-55 -58 59 0
c gate 60 -3 -19 0
-3 -60 0
-19 -60 0
3 19 60 0
c gate 61 1 17 0
1 -61 0
17 -61 0
-1 -17 61 0
c gate 62 2 18 0
2 -62 0
18 -62 0
-2 -18 62 0
c gate 63 -61 -62 0
-61 -63 0
-62 -63 0
61 62 63 0
c gate 64 -60 -63 0
-60 -64 0
-63 -64 0
60 63 64 0
c gate 65 58 -64 0
58 -65 0
-64 -65 0
-58 64 65 0
c gate 66 -5 -21 0
-5 -66 0
-21 -66 0
5 21 66 0
c gate 67 -4 -20 0
-4 -67 0
-20 -67 0
4 20 67 0
c gate 68 -66 -67 0
-66 -68 0
-67 -68 0
66 67 68 0
c gate 69 -65 68 0
-65 -69 0
68 -69 0
65 -68 69 0
c gate 70 -59 69 0
-59 -70 0
69 -70 0
59 -69 70 0
c gate 71 6 22 0
6 -71 0
22 -71 0
-6 -22 71 0
c gate 72 5 21 0
5 -72 0
21 -72 0
-5 -21 72 0
c gate 73 -71 -72 0
-71 -73 0
-72 -73 0
71 72 73 0
c gate 74 -70 73 0
-70 -74 0
73 -74 0
70 -73 74 0
c gate 75 -54 -74 0
-54 -75 0
-74 -75 0
54 74 75 0
c gate 76 -53 75 0
-53 -76 0
75 -76 0
53 -75 76 0
c gate 77 8 24 0
8 -77 0
24 -77 0
-8 -24 77 0
c gate 78 7 23 0
7 -78 0
23 -78 0
-7 -23 78 0
c gate 79 -77 -78 0
-77 -79 0
-78 -79 0
77 78 79 0
c gate 80 -76 79 0
-76 -80 0
79 -80 0
76 -79 80 0
c gate 81 -52 -80 0
-52 -81 0
-80 -81 0
52 80 81 0
c gate 82 -51 -81 0
-51 -82 0
-81 -82 0
51 81 82 0
c gate 83 -9 -25 0
-9 -83 0
-25 -83 0
9 25 83 0
c gate 84 -10 -26 0
-10 -84 0
-26 -84 0
10 26 84 0
c gate 85 -83 -84 0
-83 -85 0
-84 -85 0
83 84 85 0
c gate 86 -82 85 0
-82 -86 0
85 -86 0
82 -85 86 0
c gate 87 50 -86 0
50 -87 0
-86 -87 0
-50 86 87 0
c gate 88 -11 -27 0
-11 -88 0
-27 -88 0
11 27 88 0
c gate 89 -12 -28 0
-12 -89 0
-28 -89 0
12 28 89 0
c gate 90 -39 -89 0
-39 -90 0
-89 -90 0
39 89 90 0
c gate 91 -88 90 0
-88 -91 0
90 -91 0
88 -90 91 0
c gate 92 -87 91 0
-87 -92 0
91 -92 0
87 -91 92 0
c gate 93 41 -92 0
41 -93 0
-92 -93 0
-41 92 93 0
c gate 94 -47 -93 0
-47 -94 0
-93 -94 0
47 93 94 0
c gate 95 38 -94 0
38 -95 0
-94 -95 0
-38 94 95 0
c gate 96 -37 -95 0
-37 -96 0
-95 -96 0
37 95 96 0
c gate 97 35 -96 0
35 -97 0
-96 -97 0
-35 96 97 0
c gate 98 -35 96 0
-35 -98 0
96 -98 0
35 -96 98 0
c gate 99 -97 -98 0
-97 -99 0
-98 -99 0
97 98 99 0
c gate 100 46 -99 0
46 -100 0
-99 -100 0
-46 99 100 0
c gate 101 -46 99 0
-46 -101 0
99 -101 0
46 -99 101 0
c gate 102 -100 -101 0
-100 -102 0
-101 -102 0
100 101 102 0
c gate 103 10 -26 0
10 -103 0
-26 -103 0
-10 26 103 0
c gate 104 -51 -83 0
-51 -104 0
-83 -104 0
51 83 104 0
c gate 105 8 -24 0
8 -105 0
-24 -105 0
-8 24 105 0
c gate 106 -104 -105 0
-104 -106 0
-105 -106 0
104 105 106 0
c gate 107 -9 25 0
-9 -107 0
25 -107 0
9 -25 107 0
c gate 108 -10 26 0
-10 -108 0
26 -108 0
10 -26 108 0
c gate 109 -107 -108 0
-107 -109 0
-108 -109 0
107 108 109 0
c gate 110 -106 109 0
-106 -110 0
109 -110 0
106 -109 110 0
c gate 111 -103 -110 0
-103 -111 0
-110 -111 0
103 110 111 0
c gate 112 -52 -77 0
-52 -112 0
-77 -112 0
52 77 112 0
c gate 113 -7 23 0
-7 -113 0
23 -113 0
7 -23 113 0
c gate 114 -2 18 0
-2 -114 0
18 -114 0
2 -18 114 0
c gate 115 -1 17 0
-1 -115 0
17 -115 0
1 -17 115 0
c gate 116 -114 -115 0
-114 -116 0
-115 -116 0
114 115 116 0
c gate 117 2 -18 0
2 -117 0
-18 -117 0
-2 18 117 0
c gate 118 3 -19 0
3 -118 0
-19 -118 0
-3 19 118 0
c gate 119 -117 -118 0
-117 -119 0
-118 -119 0
117 118 119 0
c gate 120 -116 119 0
-116 -120 0
119 -120 0
116 -119 120 0
c gate 121 -4 20 0
-4 -121 0
20 -121 0
4 -20 121 0
c gate 122 -3 19 0
-3 -122 0
19 -122 0
3 -19 122 0
c gate 123 -121 -122 0
-121 -123 0
-122 -123 0
121 122 123 0
c gate 124 -120 123 0
-120 -124 0
123 -124 0
120 -123 124 0
c gate 125 5 -21 0
5 -125 0
-21 -125 0
-5 21 125 0
c gate 126 4 -20 0
4 -126 0
-20 -126 0
-4 20 126 0
c gate 127 -125 -126 0
-125 -127 0
-126 -127 0
125 126 127 0
c gate 128 -124 127 0
-124 -128 0
127 -128 0
124 -127 128 0
c gate 129 -54 -71 0
-54 -129 0
-71 -129 0
54 71 129 0
c gate 130 -5 21 0
-5 -130 0
21 -130 0
5 -21 130 0
c gate 131 -129 -130 0
-129 -131 0
-130 -131 0
129 130 131 0
c gate 132 -128 131 0
-128 -132 0
131 -132 0
128 -131 132 0
c gate 133 -113 132 0
-113 -133 0
132 -133 0
113 -132 133 0
c gate 134 7 -23 0
7 -134 0
-23 -134 0
-7 23 134 0
c gate 135 6 -22 0
6 -135 0
-22 -135 0
-6 22 135 0
c gate 136 -113 135 0
-113 -136 0
135 -136 0
113 -135 136 0
c gate 137 -134 -136 0
-134 -137 0
-136 -137 0
134 136 137 0
c gate 138 -133 137 0
-133 -138 0
137 -138 0
133 -137 138 0
c gate 139 -112 -138 0
-112 -139 0
-138 -139 0
112 138 139 0
c gate 140 109 139 0
109 -140 0
139 -140 0
-109 -139 140 0
c gate 141 111 -140 0
111 -141 0
-140 -141 0
-111 140 141 0
c gate 142 -48 -88 0
-48 -142 0
-88 -142 0
48 88 142 0
c gate 143 141 -142 0
141 -143 0
-142 -143 0
-141 142 143 0
c gate 144 -141 142 0
-141 -144 0
142 -144 0
141 -142 144 0
c gate 145 -143 -144 0
-143 -145 0
-144 -145 0
143 144 145 0
c gate 146 111 -145 0
111 -146 0
-145 -146 0
-111 145 146 0
c gate 147 -33 -97 0
-33 -147 0
-97 -147 0
33 97 147 0
c gate 148 16 32 0
16 -148 0
32 -148 0
-16 -32 148 0
c gate 149 -16 -32 0
-16 -149 0
-32 -149 0
16 32 149 0
c gate 150 -148 -149 0
-148 -150 0
-149 -150 0
148 149 150 0
c gate 151 -33 -44 0
-33 -151 0
-44 -151 0
33 44 151 0
c gate 152 150 -151 0
150 -152 0
-151 -152 0
-150 151 152 0
c gate 153 147 152 0
147 -153 0
152 -153 0
-147 -152 153 0
c gate 154 -132 -153 0
-132 -154 0
-153 -154 0
132 153 154 0
c gate 155 -38 41 0
-38 -155 0
41 -155 0
38 -41 155 0
c gate 156 -42 -155 0
-42 -156 0
-155 -156 0
42 155 156 0
c gate 157 -38 94 0
-38 -157 0
94 -157 0
38 -94 157 0
c gate 158 -95 -157 0
-95 -158 0
-157 -158 0
95 157 158 0
c gate 159 156 158 0
156 -159 0
158 -159 0
-156 -158 159 0
c gate 160 -156 -158 0
-156 -160 0
-158 -160 0
156 158 160 0
c gate 161 -159 -160 0
-159 -161 0
-160 -161 0
159 160 161 0
c gate 162 -52 -53 0
-52 -162 0
-53 -162 0
52 53 162 0
c gate 163 -51 -77 0
-51 -163 0
-77 -163 0
51 77 163 0
c gate 164 -162 163 0
-162 -164 0
163 -164 0
162 -163 164 0
c gate 165 85 -164 0
85 -165 0
-164 -165 0
-85 164 165 0
c gate 166 50 -90 0
50 -166 0
-90 -166 0
-50 90 166 0
c gate 167 -165 166 0
-165 -167 0
166 -167 0
165 -166 167 0
c gate 168 86 167 0
86 -168 0
167 -168 0
-86 -167 168 0
c gate 169 90 165 0
90 -169 0
165 -169 0
-90 -165 169 0
c gate 170 87 169 0
87 -170 0
169 -170 0
-87 -169 170 0
c gate 171 -168 -170 0
-168 -171 0
-170 -171 0
168 170 171 0
c gate 172 -88 -171 0
-88 -172 0
-171 -172 0
88 171 172 0
c gate 173 161 172 0
161 -173 0
172 -173 0
-161 -172 173 0
c gate 174 -147 150 0
-147 -174 0
150 -174 0
147 -150 174 0
c gate 175 147 -150 0
147 -175 0
-150 -175 0
-147 150 175 0
c gate 176 -174 -175 0
-174 -176 0
-175 -176 0
174 175 176 0
c gate 177 -150 151 0
-150 -177 0
151 -177 0
150 -151 177 0
c gate 178 -152 -177 0
-152 -178 0
-177 -178 0
152 177 178 0
c gate 179 -176 178 0
-176 -179 0
178 -179 0
176 -178 179 0
c gate 180 176 -178 0
176 -180 0
-178 -180 0
-176 178 180 0
c gate 181 -40 -47 0
-40 -181 0
-47 -181 0
40 47 181 0
c gate 182 92 -181 0
92 -182 0
-181 -182 0
-92 181 182 0
c gate 183 -160 -182 0
-160 -183 0
-182 -183 0
160 182 183 0
c gate 184 -101 -183 0
-101 -184 0
-183 -184 0
101 183 184 0
c gate 185 -100 -184 0
-100 -185 0
-184 -185 0
100 184 185 0
c gate 186 -180 -185 0
-180 -186 0
-185 -186 0
180 185 186 0
c gate 187 -179 -186 0
-179 -187 0
-186 -187 0
179 186 187 0
c gate 188 -173 187 0
-173 -188 0
187 -188 0
173 -187 188 0
c gate 189 79 162 0
79 -189 0
162 -189 0
-79 -162 189 0
c gate 190 -75 189 0
-75 -190 0
189 -190 0
75 -189 190 0
c gate 191 -92 -190 0
-92 -191 0
-190 -191 0
92 190 191 0
c gate 192 161 191 0
161 -192 0
191 -192 0
-161 -191 192 0
c gate 193 -188 -192 0
-188 -193 0
-192 -193 0
188 192 193 0
c gate 194 154 193 0
154 -194 0
193 -194 0
-154 -193 194 0
c gate 195 -53 -78 0
-53 -195 0
-78 -195 0
53 78 195 0
c gate 196 132 195 0
132 -196 0
195 -196 0
-132 -195 196 0
c gate 197 -132 -148 0
-132 -197 0
-148 -197 0
132 148 197 0
c gate 198 -152 197 0
-152 -198 0
197 -198 0
152 -197 198 0
c gate 199 174 198 0
174 -199 0
198 -199 0
-174 -198 199 0
c gate 200 -196 -199 0
-196 -200 0
-199 -200 0
196 199 200 0
c gate 201 -194 200 0
-194 -201 0
200 -201 0
194 -200 201 0
c gate 202 112 137 0
112 -202 0
137 -202 0
-112 -137 202 0
c gate 203 -138 202 0
-138 -203 0
202 -203 0
138 -202 203 0
c gate 204 -139 -203 0
-139 -204 0
-203 -204 0
139 203 204 0
c gate 205 201 204 0
201 -205 0
204 -205 0
-201 -204 205 0
c gate 206 -49 -84 0
-49 -206 0
-84 -206 0
49 84 206 0
c gate 207 -104 -206 0
-104 -207 0
-206 -207 0
104 206 207 0
c gate 208 139 207 0
139 -208 0
207 -208 0
-139 -207 208 0
c gate 209 -205 -208 0
-205 -209 0
-208 -209 0
205 208 209 0
c gate 210 -146 -209 0
-146 -210 0
-209 -210 0
146 209 210 0
c gate 211 -143 -210 0
-143 -211 0
-210 -211 0
143 210 211 0
c gate 212 -35 -38 0
-35 -212 0
-38 -212 0
35 38 212 0
c gate 213 -90 -150 0
-90 -213 0
-150 -213 0
90 150 213 0
c gate 214 -181 213 0
-181 -214 0
213 -214 0
181 -213 214 0
c gate 215 212 214 0
212 -215 0
214 -215 0
-212 -214 215 0
c gate 216 143 215 0
143 -216 0
215 -216 0
-143 -215 216 0
c gate 217 -211 -216 0
-211 -217 0
-216 -217 0
211 216 217 0
c gate 218 -172 183 0
-172 -218 0
183 -218 0
172 -183 218 0
c gate 219 217 -218 0
217 -219 0
-218 -219 0
-217 218 219 0
c gate 220 55 61 0
55 -220 0
61 -220 0
-55 -61 220 0
c gate 221 -54 74 0
-54 -221 0
74 -221 0
54 -74 221 0
c gate 222 -220 -221 0
-220 -222 0
-221 -222 0
220 221 222 0
c gate 223 54 195 0
54 -223 0
195 -223 0
-54 -195 223 0
c gate 224 222 -223 0
222 -224 0
-223 -224 0
-222 223 224 0
c gate 225 -172 -224 0
-172 -225 0
-224 -225 0
172 224 225 0
c gate 226 -92 -225 0
-92 -226 0
-225 -226 0
92 225 226 0
c gate 227 161 226 0
161 -227 0
226 -227 0
-161 -226 227 0
c gate 228 183 -227 0
183 -228 0
-227 -228 0
-183 227 228 0
c gate 229 -217 228 0
-217 -229 0
228 -229 0
217 -228 229 0
c gate 230 -219 -229 0
-219 -230 0
-229 -230 0
219 229 230 0
c gate 231 102 230 0
102 -231 0
230 -231 0
-102 -230 231 0
c gate 232 -102 -230 0
-102 -232 0
-230 -232 0
102 230 232 0
c gate 233 -231 -232 0
-231 -233 0
-232 -233 0
231 232 233 0
c PO
233 0
